0 128 
1 130 
2 131 
3 132 
4 130 
5 130 
6 128 
7 127 
8 121 
9 123 
10 124 
11 119 
12 114 
13 114 
14 113 
15 112 
16 111 
17 111 
18 110 
19 107 
20 106 
21 107 
22 103 
23 98 
24 101 
25 97 
26 92 
27 88 
28 86 
29 85 
30 84 
31 83 
32 82 
33 78 
34 77 
35 77 
36 78 
37 76 
38 78 
39 77 
40 77 
41 73 
42 71 
43 70 
44 65 
45 66 
46 67 
47 64 
48 64 
49 60 
50 56 
51 48 
52 47 
53 48 
54 44 
55 43 
56 42 
57 44 
58 43 
59 41 
60 40 
61 37 
62 42 
63 41 
64 38 
65 34 
66 35 
67 34 
68 32 
69 34 
70 32 
71 32 
72 30 
73 28 
74 28 
75 25 
76 24 
77 25 
78 20 
79 16 
80 13 
81 8 
82 8 
83 9 
84 10 
85 10 
86 10 
87 9 
88 10 
89 11 
90 11 
91 10 
92 8 
93 8 
94 8 
95 7 
96 5 
97 3 
98 1 
99 0 
100 0 

